1391 1375 1170 1206 1099 1136
1244 1155 1243 1238 1214 1429
1415 1184 1204 1293 1455 1241
1371 1130 1484 1324 1117 1453
1131 1118 1240 1490 1162 1219
1251 1173 1121 1290 1352 1381
1357 1373 1481 1241 1410 1133
1146 1468 1392 1395 1153 1225
1287 1406 1309 1294 1398 1450
1209 1143 1085 1102 1100 1224
